--------------------------------------------------------------------------------(Solver execution current time: 0.00014543533325195312)
[INFO] Input Seed : 0
--------------------------------------------------------------------------------(Solver execution current time: 0.00017642974853515625)
[INFO] Input time limit : 60
--------------------------------------------------------------------------------(Solver execution current time: 0.00019812583923339844)
[INFO] Command line arguments read with no errors.
--------------------------------------------------------------------------------(Solver execution current time: 0.015336275100708008)
[INFO] Input file read with no errors.
--------------------------------------------------------------------------------(Solver execution current time: 0.015412092208862305)
[INFO] Starting solver.
--------------------------------------------------------------------------------(Solver execution current time: 0.015445232391357422)
[INFO] Starting construction
--------------------------------------------------------------------------------(Solver execution current time: 3.8592984676361084)
[INFO] Finished construction
--------------------------------------------------------------------------------(Solver execution current time: 3.8593850135803223)
[SOLUTION]
Basic Greedy Heuristic
Exec Time: 3.8438491821289062
obj_value: -43; obj_routes: 901
Route 1 : 31 40 12 21 81 62 8 71 41 46 91 96 90 58 
Route 2 : 20 28 49 70 78 10 60 99 38 6 56 88 
Route 3 : 23 1 73 51 18 25 68 75 
Route 4 : 5 55 13 63 35 14 47 64 85 97 7 57 4 54 
Route 5 : 26 27 76 17 67 37 87 3 22 72 77 53 
Route 6 : 15 30 80 33 42 83 44 92 94 65 43 45 95 93 36 86 
Route 7 : 39 29 89 79 11 61 24 48 98 74 

--------------------------------------------------------------------------------(Solver execution current time: 3.8604209423065186)
[SOLUTION]
Solution after BasicGreedyLimitedHeterogeneousFleet
obj_value: -43; obj_routes: 901
Route 1 : 31 40 12 21 81 62 8 71 41 46 91 96 90 58 
Route 2 : 20 28 49 70 78 10 60 99 38 6 56 88 
Route 3 : 23 1 73 51 18 25 68 75 
Route 4 : 5 55 13 63 35 14 47 64 85 97 7 57 4 54 
Route 5 : 26 27 76 17 67 37 87 3 22 72 77 53 
Route 6 : 15 30 80 33 42 83 44 92 94 65 43 45 95 93 36 86 
Route 7 : 39 29 89 79 11 61 24 48 98 74 

--------------------------------------------------------------------------------(Solver execution current time: 3.861753463745117)
[INFO] Starting metaheuristic
--------------------------------------------------------------------------------(Solver execution current time: 3.864409923553467)
[INFO] AGES EXCLUDED
--------------------------------------------------------------------------------(Solver execution current time: 10.753859996795654)
[SOLUTION]
LNS
IT: 27
Exec Time: 6.886804819107056
Improved
obj_value: -45; obj_routes: 880
Route 1 : 31 40 12 21 81 62 41 71 91 16 66 90 8 58 
Route 2 : 20 28 49 70 78 10 60 99 6 56 37 87 
Route 3 : 23 1 73 51 18 25 68 75 
Route 4 : 5 55 13 63 35 14 64 43 85 32 82 7 57 93 
Route 5 : 26 27 76 17 2 67 52 3 22 72 77 46 96 53 
Route 6 : 30 80 39 33 15 65 83 89 9 59 34 36 84 86 4 54 
Route 7 : 29 48 98 47 79 11 97 38 61 24 74 88 

--------------------------------------------------------------------------------(Solver execution current time: 10.82852053642273)
[SOLUTION]
PartitionMaxRequests
Exec Time: 0.0723106861114502
obj_value: -45; obj_routes: 880
Route 1 : 23 1 73 51 18 25 68 75 
Route 2 : 31 40 12 21 81 62 41 71 91 16 66 90 8 58 
Route 3 : 20 28 49 70 78 10 60 99 6 56 37 87 
Route 4 : 5 55 13 63 35 14 64 43 85 32 82 7 57 93 
Route 5 : 26 27 76 17 2 67 52 3 22 72 77 46 96 53 
Route 6 : 30 80 39 33 15 65 83 89 9 59 34 36 84 86 4 54 
Route 7 : 29 48 98 47 79 11 97 38 61 24 74 88 

--------------------------------------------------------------------------------(Solver execution current time: 15.103689670562744)
[SOLUTION]
Original Perturbation
Exec Time: 4.274418115615845
obj_value: -45; obj_routes: 930
Route 1 : 31 40 12 21 81 2 62 52 71 9 59 16 66 46 96 90 
Route 2 : 20 28 49 70 78 10 60 25 99 36 75 86 
Route 3 : 23 1 73 51 38 88 
Route 4 : 5 55 13 63 35 14 64 85 7 57 34 84 18 6 68 56 
Route 5 : 26 47 27 76 17 67 97 3 22 72 77 11 61 53 
Route 6 : 30 80 39 33 15 65 43 83 89 32 82 93 8 58 
Route 7 : 48 98 41 91 29 79 37 87 24 74 4 54 

--------------------------------------------------------------------------------(Solver execution current time: 15.104885339736938)
[SOLUTION]
SBMath
IT: 1
ITs witout improving: 1
IT time: 11.240478277206421
Time since begin: 11.241826295852661
obj_value: -45; obj_routes: 930
Route 1 : 31 40 12 21 81 2 62 52 71 9 59 16 66 46 96 90 
Route 2 : 20 28 49 70 78 10 60 25 99 36 75 86 
Route 3 : 23 1 73 51 38 88 
Route 4 : 5 55 13 63 35 14 64 85 7 57 34 84 18 6 68 56 
Route 5 : 26 47 27 76 17 67 97 3 22 72 77 11 61 53 
Route 6 : 30 80 39 33 15 65 43 83 89 32 82 93 8 58 
Route 7 : 48 98 41 91 29 79 37 87 24 74 4 54 

--------------------------------------------------------------------------------(Solver execution current time: 15.105061054229736)
[SOLUTION]
SBMath
IT: 1
ITs witout improving: 1
IT time: 11.240478277206421
Time since begin: 11.241826295852661
obj_value: -45; obj_routes: 880
Route 1 : 31 40 12 21 81 62 41 71 91 16 66 90 8 58 
Route 2 : 20 28 49 70 78 10 60 99 6 56 37 87 
Route 3 : 23 1 73 51 18 25 68 75 
Route 4 : 5 55 13 63 35 14 64 43 85 32 82 7 57 93 
Route 5 : 26 27 76 17 2 67 52 3 22 72 77 46 96 53 
Route 6 : 30 80 39 33 15 65 83 89 9 59 34 36 84 86 4 54 
Route 7 : 29 48 98 47 79 11 97 38 61 24 74 88 

--------------------------------------------------------------------------------(Solver execution current time: 15.106009721755981)
[INFO] AGES EXCLUDED
--------------------------------------------------------------------------------(Solver execution current time: 22.699315786361694)
[SOLUTION]
LNS
IT: 40
Exec Time: 7.590616703033447
Improved
obj_value: -45; obj_routes: 918
Route 1 : 31 40 12 21 81 2 62 52 71 9 59 16 66 46 96 90 
Route 2 : 20 28 49 70 78 10 60 25 99 36 75 86 
Route 3 : 23 1 73 51 50 100 
Route 4 : 5 55 13 63 35 14 64 85 7 57 34 84 18 6 68 56 
Route 5 : 26 47 27 76 17 67 38 97 3 22 72 77 88 53 
Route 6 : 30 80 39 33 15 65 43 83 89 32 82 93 8 58 
Route 7 : 48 98 41 91 29 79 37 87 24 4 74 54 

--------------------------------------------------------------------------------(Solver execution current time: 22.717020273208618)
[SOLUTION]
PartitionMaxRequests
Exec Time: 0.015232086181640625
obj_value: -45; obj_routes: 918
Route 1 : 31 40 12 21 81 2 62 52 71 9 59 16 66 46 96 90 
Route 2 : 20 28 49 70 78 10 60 25 99 36 75 86 
Route 3 : 23 1 73 51 50 100 
Route 4 : 5 55 13 63 35 14 64 85 7 57 34 84 18 6 68 56 
Route 5 : 26 47 27 76 17 67 38 97 3 22 72 77 88 53 
Route 6 : 30 80 39 33 15 65 43 83 89 32 82 93 8 58 
Route 7 : 48 98 41 91 29 79 37 87 24 4 74 54 

--------------------------------------------------------------------------------(Solver execution current time: 30.818474292755127)
[SOLUTION]
Original Perturbation
Exec Time: 8.100682497024536
obj_value: -45; obj_routes: 948
Route 1 : 31 40 12 21 81 2 62 52 71 32 82 18 46 68 96 90 
Route 2 : 20 28 49 70 78 10 60 25 99 75 
Route 3 : 23 1 73 51 4 54 
Route 4 : 5 55 13 63 35 14 64 85 7 57 34 84 9 59 36 6 86 56 
Route 5 : 26 47 76 16 66 39 38 89 97 3 22 72 88 53 
Route 6 : 17 67 30 80 33 15 65 43 83 41 91 93 8 58 
Route 7 : 48 98 29 79 37 87 24 27 77 74 50 100 

--------------------------------------------------------------------------------(Solver execution current time: 30.819661617279053)
[SOLUTION]
SBMath
IT: 2
ITs witout improving: 2
IT time: 15.713658809661865
Time since begin: 26.956603050231934
obj_value: -45; obj_routes: 948
Route 1 : 31 40 12 21 81 2 62 52 71 32 82 18 46 68 96 90 
Route 2 : 20 28 49 70 78 10 60 25 99 75 
Route 3 : 23 1 73 51 4 54 
Route 4 : 5 55 13 63 35 14 64 85 7 57 34 84 9 59 36 6 86 56 
Route 5 : 26 47 76 16 66 39 38 89 97 3 22 72 88 53 
Route 6 : 17 67 30 80 33 15 65 43 83 41 91 93 8 58 
Route 7 : 48 98 29 79 37 87 24 27 77 74 50 100 

--------------------------------------------------------------------------------(Solver execution current time: 30.81983757019043)
[SOLUTION]
SBMath
IT: 2
ITs witout improving: 2
IT time: 15.713658809661865
Time since begin: 26.956603050231934
obj_value: -45; obj_routes: 880
Route 1 : 31 40 12 21 81 62 41 71 91 16 66 90 8 58 
Route 2 : 20 28 49 70 78 10 60 99 6 56 37 87 
Route 3 : 23 1 73 51 18 25 68 75 
Route 4 : 5 55 13 63 35 14 64 43 85 32 82 7 57 93 
Route 5 : 26 27 76 17 2 67 52 3 22 72 77 46 96 53 
Route 6 : 30 80 39 33 15 65 83 89 9 59 34 36 84 86 4 54 
Route 7 : 29 48 98 47 79 11 97 38 61 24 74 88 

--------------------------------------------------------------------------------(Solver execution current time: 30.820762634277344)
[INFO] AGES EXCLUDED
--------------------------------------------------------------------------------(Solver execution current time: 38.54262113571167)
[SOLUTION]
LNS
IT: 40
Exec Time: 7.7189695835113525
obj_value: -45; obj_routes: 948
Route 1 : 31 40 12 21 81 2 62 52 71 32 82 18 46 68 96 90 
Route 2 : 20 28 49 70 78 10 60 25 99 75 
Route 3 : 23 1 73 51 4 54 
Route 4 : 5 55 13 63 35 14 64 85 7 57 34 84 9 59 36 6 86 56 
Route 5 : 26 47 76 16 66 39 38 89 97 3 22 72 88 53 
Route 6 : 17 67 30 80 33 15 65 43 83 41 91 93 8 58 
Route 7 : 48 98 29 79 37 87 24 27 77 74 50 100 

--------------------------------------------------------------------------------(Solver execution current time: 38.56670904159546)
[SOLUTION]
PartitionMaxRequests
Exec Time: 0.021355628967285156
Improvedobj_value: -45; obj_routes: 880
Route 1 : 23 1 73 51 18 25 68 75 
Route 2 : 31 40 12 21 81 62 41 71 91 16 66 90 8 58 
Route 3 : 20 28 49 70 78 10 60 99 6 56 37 87 
Route 4 : 5 55 13 63 35 14 64 43 85 32 82 7 57 93 
Route 5 : 26 27 76 17 2 67 52 3 22 72 77 46 96 53 
Route 6 : 30 80 39 33 15 65 83 89 9 59 34 36 84 86 4 54 
Route 7 : 29 48 98 47 79 11 97 38 61 24 74 88 

--------------------------------------------------------------------------------(Solver execution current time: 42.59487247467041)
[SOLUTION]
Original Perturbation
Exec Time: 4.027377367019653
obj_value: -45; obj_routes: 899
Route 1 : 31 40 12 21 81 2 62 52 71 7 57 16 66 46 96 90 
Route 2 : 20 28 49 70 78 10 60 99 6 56 48 98 
Route 3 : 23 1 73 51 18 68 37 87 
Route 4 : 5 55 13 63 35 85 43 34 84 93 9 59 8 58 
Route 5 : 26 27 47 76 97 3 22 4 72 77 54 53 
Route 6 : 30 80 39 33 89 83 17 67 41 32 82 91 36 86 
Route 7 : 29 14 64 15 79 24 74 65 25 75 50 38 100 88 

--------------------------------------------------------------------------------(Solver execution current time: 42.59608268737793)
[SOLUTION]
SBMath
IT: 3
ITs witout improving: 3
IT time: 11.775325536727905
Time since begin: 38.73302412033081
obj_value: -45; obj_routes: 899
Route 1 : 31 40 12 21 81 2 62 52 71 7 57 16 66 46 96 90 
Route 2 : 20 28 49 70 78 10 60 99 6 56 48 98 
Route 3 : 23 1 73 51 18 68 37 87 
Route 4 : 5 55 13 63 35 85 43 34 84 93 9 59 8 58 
Route 5 : 26 27 47 76 97 3 22 4 72 77 54 53 
Route 6 : 30 80 39 33 89 83 17 67 41 32 82 91 36 86 
Route 7 : 29 14 64 15 79 24 74 65 25 75 50 38 100 88 

--------------------------------------------------------------------------------(Solver execution current time: 42.59624886512756)
[SOLUTION]
SBMath
IT: 3
ITs witout improving: 3
IT time: 11.775325536727905
Time since begin: 38.73302412033081
obj_value: -45; obj_routes: 880
Route 1 : 31 40 12 21 81 62 41 71 91 16 66 90 8 58 
Route 2 : 20 28 49 70 78 10 60 99 6 56 37 87 
Route 3 : 23 1 73 51 18 25 68 75 
Route 4 : 5 55 13 63 35 14 64 43 85 32 82 7 57 93 
Route 5 : 26 27 76 17 2 67 52 3 22 72 77 46 96 53 
Route 6 : 30 80 39 33 15 65 83 89 9 59 34 36 84 86 4 54 
Route 7 : 29 48 98 47 79 11 97 38 61 24 74 88 

--------------------------------------------------------------------------------(Solver execution current time: 42.59716296195984)
[INFO] AGES EXCLUDED
--------------------------------------------------------------------------------(Solver execution current time: 48.69989228248596)
[SOLUTION]
LNS
IT: 25
Exec Time: 6.0999915599823
Improved
obj_value: -46; obj_routes: 903
Route 1 : 31 40 12 21 81 2 62 52 71 7 57 16 66 46 90 96 
Route 2 : 20 28 49 70 78 10 60 99 6 25 56 75 
Route 3 : 23 1 73 51 18 68 37 87 
Route 4 : 5 55 42 13 92 43 63 34 84 93 9 59 8 58 
Route 5 : 26 29 27 76 47 97 3 22 79 72 77 53 
Route 6 : 30 33 80 39 89 83 17 67 41 32 82 19 91 69 36 86 
Route 7 : 14 64 15 24 74 65 44 38 48 98 50 94 88 100 

--------------------------------------------------------------------------------(Solver execution current time: 48.72502017021179)
[SOLUTION]
PartitionMaxRequests
Exec Time: 0.02249622344970703
obj_value: -46; obj_routes: 903
Route 1 : 31 40 12 21 81 2 62 52 71 7 57 16 66 46 90 96 
Route 2 : 20 28 49 70 78 10 60 99 6 25 56 75 
Route 3 : 23 1 73 51 18 68 37 87 
Route 4 : 5 55 42 13 92 43 63 34 84 93 9 59 8 58 
Route 5 : 26 29 27 76 47 97 3 22 79 72 77 53 
Route 6 : 30 33 80 39 89 83 17 67 41 32 82 19 91 69 36 86 
Route 7 : 14 64 15 24 74 65 44 38 48 98 50 94 88 100 

--------------------------------------------------------------------------------(Solver execution current time: 55.371726989746094)
[SOLUTION]
Original Perturbation
Exec Time: 6.645878791809082
obj_value: -46; obj_routes: 920
Route 1 : 31 40 12 21 81 2 62 52 71 7 57 36 16 66 90 6 56 86 
Route 2 : 20 28 49 70 44 78 94 99 37 87 
Route 3 : 23 1 73 51 50 100 
Route 4 : 5 55 42 13 92 43 63 39 89 93 9 59 8 58 
Route 5 : 26 48 98 29 27 76 3 22 79 72 77 38 88 53 
Route 6 : 30 33 80 34 84 83 17 67 41 32 82 19 91 69 46 96 
Route 7 : 14 64 15 24 47 74 65 97 10 18 60 25 68 75 

--------------------------------------------------------------------------------(Solver execution current time: 55.37299823760986)
[SOLUTION]
SBMath
IT: 4
ITs witout improving: 4
IT time: 12.775840759277344
Time since begin: 51.50993895530701
obj_value: -46; obj_routes: 920
Route 1 : 31 40 12 21 81 2 62 52 71 7 57 36 16 66 90 6 56 86 
Route 2 : 20 28 49 70 44 78 94 99 37 87 
Route 3 : 23 1 73 51 50 100 
Route 4 : 5 55 42 13 92 43 63 39 89 93 9 59 8 58 
Route 5 : 26 48 98 29 27 76 3 22 79 72 77 38 88 53 
Route 6 : 30 33 80 34 84 83 17 67 41 32 82 19 91 69 46 96 
Route 7 : 14 64 15 24 47 74 65 97 10 18 60 25 68 75 

--------------------------------------------------------------------------------(Solver execution current time: 55.37317633628845)
[SOLUTION]
SBMath
IT: 4
ITs witout improving: 4
IT time: 12.775840759277344
Time since begin: 51.50993895530701
obj_value: -46; obj_routes: 895
Route 1 : 31 40 12 21 81 2 62 52 71 7 57 16 36 66 90 86 
Route 2 : 20 28 49 70 78 10 60 99 6 25 56 75 
Route 3 : 23 1 73 51 18 68 37 87 
Route 4 : 5 55 42 13 92 43 63 34 84 93 9 59 8 58 
Route 5 : 26 29 27 76 47 97 3 22 79 72 77 53 
Route 6 : 30 33 80 39 89 83 17 67 41 32 82 19 91 69 46 96 
Route 7 : 14 64 15 24 74 65 44 38 48 98 50 94 88 100 

--------------------------------------------------------------------------------(Solver execution current time: 55.37411832809448)
[INFO] AGES EXCLUDED
--------------------------------------------------------------------------------(Solver execution current time: 60.01555943489075)
[WARNING] Time Limit Exceeded
--------------------------------------------------------------------------------(Solver execution current time: 60.015684604644775)
[WARNING] Searching current best solution.
--------------------------------------------------------------------------------(Solver execution current time: 60.02282166481018)
[WARNING] Current best solution found.
--------------------------------------------------------------------------------(Solver execution current time: 60.02423691749573)
[INFO] Algorithm execution time : 60.02500367164612
--------------------------------------------------------------------------------(Solver execution current time: 60.02558732032776)
[SOLUTION]
Final Solution Verification
====================================
Constraints verification: 
Homogenous Capacity Constraint OK
Time Windwos Constraint OK
Pickup and Delivery Constraint OK
Fixed Requests Constraint OK
Limited Fleet Constraint OK
Heterogeneous Fleet Constraint OK
====================================
Obj Func verification: 
SOLUTION COST OK
------------------------------------
ROUTES TOTAL COST OK
------------------------------------
REQUESTS TOTAL COST OK
------------------------------------
OBJECTIVE VALUE: -47
ROUTES VALUE: 915
------------------------------------

Best Solution: 
obj_value: -47; obj_routes: 915
Route 1 : 31 40 12 21 81 2 62 52 71 7 57 16 36 66 90 6 56 86 
Route 2 : 20 28 49 70 43 78 18 99 68 93 37 87 
Route 3 : 23 1 73 51 11 61 
Route 4 : 5 55 13 42 63 35 85 39 92 89 9 59 8 58 
Route 5 : 26 47 27 77 97 29 76 3 22 79 72 38 88 53 
Route 6 : 30 33 80 34 84 83 17 67 41 32 82 91 4 46 96 54 
Route 7 : 14 64 15 24 74 65 10 60 25 48 98 75 50 100 

--------------------------------------------------------------------------------